NAME:  br17
TYPE: ATSP
COMMENT: 17 city problem (Repetto)
DIMENSION:  17
EDGE_WEIGHT_TYPE: EXPLICIT
EDGE_WEIGHT_FORMAT: FULL_MATRIX 
EDGE_WEIGHT_SECTION
 9999    3    5   48   48    8    8    5    5    3    3    0    3    5    8    8
    3
EOF
